70 700
1 36 29 13 70 31 69 35 57 15 24 19 2 7 32 3 8 26 55 49 28 14 20 30 44 68 9 27 46 40 61 45 25 39 62 54 67 48 11 64 65 56 51 50 58 37 16 47 53 5 10 52 60 33 12 34 21 17 43 41 6 42 18 4 66 63 22 59 38 23 
